500
    1    31    31
    2    42    42
    3    42    42
    4    42    42
    5     6     6
    6    18    18
    7    25    25
    8    18    18
    9    14    14
   10    27    27
   11    13    13
   12     7     7
   13    25    25
   14    17    17
   15    41    41
   16    19    19
   17    19    19
   18    44    44
   19    12    12
   20    34    34
   21    25    25
   22    37    37
   23    37    37
   24    27    27
   25    10    10
   26    49    49
   27    36    36
   28    30    30
   29     6     6
   30     9     9
   31    46    46
   32    50    50
   33     7     7
   34    30    30
   35    18    18
   36    38    38
   37    29    29
   38    36    36
   39     8     8
   40    19    19
   41     1     1
   42     3     3
   43     3     3
   44     9     9
   45    38    38
   46    40    40
   47    50    50
   48    46    46
   49    32    32
   50     7     7
   51    20    20
   52    20    20
   53    24    24
   54    34    34
   55     7     7
   56    47    47
   57    15    15
   58    36    36
   59    47    47
   60    28    28
   61    19    19
   62    11    11
   63    27    27
   64     6     6
   65    35    35
   66    24    24
   67    35    35
   68    25    25
   69     6     6
   70    39    39
   71    15    15
   72     3     3
   73    48    48
   74    35    35
   75    14    14
   76    33    33
   77     2     2
   78     8     8
   79    30    30
   80    47    47
   81     3     3
   82    18    18
   83    13    13
   84    29    29
   85    48    48
   86    49    49
   87     9     9
   88     3     3
   89    25    25
   90    28    28
   91     6     6
   92    11    11
   93    21    21
   94    36    36
   95    15    15
   96    34    34
   97    31    31
   98    12    12
   99     2     2
  100    37    37
  101    18    18
  102    39    39
  103    34    34
  104    14    14
  105    47    47
  106    33    33
  107    32    32
  108     3     3
  109    46    46
  110    32    32
  111    21    21
  112    12    12
  113    29    29
  114    44    44
  115    30    30
  116    16    16
  117     6     6
  118    30    30
  119    18    18
  120     7     7
  121    10    10
  122    26    26
  123    34    34
  124    50    50
  125    27    27
  126    33    33
  127    24    24
  128    11    11
  129    33    33
  130    32    32
  131    18    18
  132     3     3
  133     8     8
  134    25    25
  135    50    50
  136    31    31
  137    14    14
  138    40    40
  139     5     5
  140    15    15
  141    25    25
  142    25    25
  143    29    29
  144    17    17
  145     4     4
  146    17    17
  147     1     1
  148    35    35
  149    13    13
  150    46    46
  151    42    42
  152    50    50
  153    48    48
  154     6     6
  155    45    45
  156    19    19
  157    18    18
  158    42    42
  159    34    34
  160    11    11
  161    39    39
  162    41    41
  163     3     3
  164    50    50
  165    36    36
  166     1     1
  167    41    41
  168    18    18
  169    29    29
  170    39    39
  171    15    15
  172    44    44
  173    31    31
  174    34    34
  175     6     6
  176     5     5
  177    46    46
  178    44    44
  179    15    15
  180     4     4
  181     2     2
  182     2     2
  183    40    40
  184    47    47
  185    42    42
  186     7     7
  187     7     7
  188     8     8
  189    48    48
  190    36    36
  191    21    21
  192     8     8
  193     9     9
  194    19    19
  195     4     4
  196    18    18
  197    50    50
  198    22    22
  199    40    40
  200    42    42
  201    29    29
  202     2     2
  203    50    50
  204    19    19
  205    30    30
  206     8     8
  207    40    40
  208     1     1
  209    13    13
  210    41    41
  211    20    20
  212     5     5
  213    47    47
  214     2     2
  215    38    38
  216    14    14
  217     4     4
  218    50    50
  219    35    35
  220    50    50
  221    16    16
  222    47    47
  223     9     9
  224    50    50
  225    23    23
  226    37    37
  227    27    27
  228    23    23
  229     3     3
  230     4     4
  231    28    28
  232    25    25
  233    19    19
  234    11    11
  235    43    43
  236    33    33
  237    13    13
  238    48    48
  239     6     6
  240    15    15
  241    45    45
  242    35    35
  243    10    10
  244    48    48
  245     7     7
  246    32    32
  247    12    12
  248    29    29
  249    49    49
  250    45    45
  251    38    38
  252     2     2
  253    33    33
  254     8     8
  255    25    25
  256    32    32
  257    28    28
  258    17    17
  259    17    17
  260    16    16
  261    13    13
  262    16    16
  263    25    25
  264     9     9
  265     6     6
  266    20    20
  267    36    36
  268     2     2
  269    32    32
  270    33    33
  271    10    10
  272    39    39
  273    33    33
  274    50    50
  275     4     4
  276     9     9
  277    25    25
  278    37    37
  279    46    46
  280    39    39
  281    11    11
  282    36    36
  283     2     2
  284    38    38
  285    41    41
  286    45    45
  287    43    43
  288    25    25
  289    47    47
  290     6     6
  291    22    22
  292    32    32
  293    26    26
  294    25    25
  295     7     7
  296     9     9
  297    10    10
  298     2     2
  299     8     8
  300    22    22
  301    31    31
  302    38    38
  303    46    46
  304     4     4
  305     1     1
  306    43    43
  307    18    18
  308    49    49
  309    19    19
  310    34    34
  311     2     2
  312    14    14
  313    30    30
  314     9     9
  315    39    39
  316     3     3
  317     9     9
  318    31    31
  319    37    37
  320     5     5
  321     3     3
  322    36    36
  323    32    32
  324    25    25
  325     8     8
  326    26    26
  327    35    35
  328    23    23
  329    31    31
  330    28    28
  331    26    26
  332    25    25
  333    34    34
  334    21    21
  335    17    17
  336     8     8
  337     3     3
  338    32    32
  339    17    17
  340    13    13
  341     2     2
  342    28    28
  343    41    41
  344    12    12
  345    42    42
  346    34    34
  347    47    47
  348    46    46
  349    46    46
  350    31    31
  351    36    36
  352    22    22
  353    50    50
  354    49    49
  355    41    41
  356    26    26
  357    16    16
  358    48    48
  359    11    11
  360    38    38
  361    43    43
  362    47    47
  363    48    48
  364    21    21
  365    34    34
  366    41    41
  367     6     6
  368    41    41
  369     6     6
  370    13    13
  371    47    47
  372     3     3
  373    40    40
  374    19    19
  375    49    49
  376    46    46
  377    31    31
  378    13    13
  379     7     7
  380    43    43
  381    16    16
  382     6     6
  383    14    14
  384    19    19
  385    42    42
  386     7     7
  387    28    28
  388     6     6
  389    33    33
  390    32    32
  391    33    33
  392    33    33
  393    25    25
  394    44    44
  395    39    39
  396    36    36
  397    14    14
  398    34    34
  399    47    47
  400    44    44
  401    28    28
  402    50    50
  403     4     4
  404    49    49
  405    16    16
  406    46    46
  407    46    46
  408    44    44
  409    18    18
  410    18    18
  411    32    32
  412    42    42
  413    26    26
  414    29    29
  415    21    21
  416    35    35
  417    37    37
  418    28    28
  419     3     3
  420    27    27
  421    34    34
  422    15    15
  423    33    33
  424    37    37
  425    42    42
  426    43    43
  427    22    22
  428     3     3
  429    41    41
  430    17    17
  431    45    45
  432    16    16
  433    18    18
  434    49    49
  435    17    17
  436    35    35
  437    39    39
  438     1     1
  439    38    38
  440    35    35
  441    49    49
  442    19    19
  443    30    30
  444    32    32
  445    11    11
  446     9     9
  447    27    27
  448     6     6
  449    29    29
  450    20    20
  451    37    37
  452    33    33
  453    25    25
  454    30    30
  455    47    47
  456     5     5
  457     1     1
  458    14    14
  459    34    34
  460    34    34
  461     9     9
  462    36    36
  463     8     8
  464    15    15
  465    32    32
  466    42    42
  467    18    18
  468    35    35
  469    29    29
  470    45    45
  471     1     1
  472    50    50
  473    43    43
  474    40    40
  475    27    27
  476     2     2
  477     4     4
  478     1     1
  479    30    30
  480    46    46
  481     3     3
  482     5     5
  483    11    11
  484    23    23
  485    41    41
  486    26    26
  487     3     3
  488    38    38
  489    42    42
  490    21    21
  491    34    34
  492    44    44
  493    47    47
  494    14    14
  495     1     1
  496    11    11
  497    12    12
  498    27    27
  499    50    50
  500    45    45
2138
